certificates/rado_a6_c154_N26.cnf
c Rad2 upper bound instance: x1 + 6*x2 - x3 = 154, interval [1,26]
p cnf 26 152
1 3 26 0
-1 -3 -26 0
2 4 26 0
-2 -4 -26 0
3 5 26 0
-3 -5 -26 0
4 6 26 0
-4 -6 -26 0
1 5 25 0
-1 -5 -25 0
5 7 26 0
-5 -7 -26 0
2 6 25 0
-2 -6 -25 0
6 8 26 0
-6 -8 -26 0
3 7 25 0
-3 -7 -25 0
7 9 26 0
-7 -9 -26 0
4 8 25 0
-4 -8 -25 0
8 10 26 0
-8 -10 -26 0
5 9 25 0
-5 -9 -25 0
9 11 26 0
-9 -11 -26 0
6 10 25 0
-6 -10 -25 0
10 12 26 0
-10 -12 -26 0
1 11 24 0
-1 -11 -24 0
7 11 25 0
-7 -11 -25 0
11 13 26 0
-11 -13 -26 0
2 12 24 0
-2 -12 -24 0
8 12 25 0
-8 -12 -25 0
12 14 26 0
-12 -14 -26 0
3 13 24 0
-3 -13 -24 0
9 13 25 0
-9 -13 -25 0
13 15 26 0
-13 -15 -26 0
4 14 24 0
-4 -14 -24 0
10 14 25 0
-10 -14 -25 0
14 16 26 0
-14 -16 -26 0
5 15 24 0
-5 -15 -24 0
11 15 25 0
-11 -15 -25 0
15 17 26 0
-15 -17 -26 0
6 16 24 0
-6 -16 -24 0
12 16 25 0
-12 -16 -25 0
16 18 26 0
-16 -18 -26 0
1 17 23 0
-1 -17 -23 0
7 17 24 0
-7 -17 -24 0
13 17 25 0
-13 -17 -25 0
17 19 26 0
-17 -19 -26 0
2 18 23 0
-2 -18 -23 0
8 18 24 0
-8 -18 -24 0
14 18 25 0
-14 -18 -25 0
18 20 26 0
-18 -20 -26 0
3 19 23 0
-3 -19 -23 0
9 19 24 0
-9 -19 -24 0
15 19 25 0
-15 -19 -25 0
19 21 26 0
-19 -21 -26 0
4 20 23 0
-4 -20 -23 0
10 20 24 0
-10 -20 -24 0
16 20 25 0
-16 -20 -25 0
20 22 26 0
-20 -22 -26 0
5 21 23 0
-5 -21 -23 0
11 21 24 0
-11 -21 -24 0
17 21 25 0
-17 -21 -25 0
21 23 26 0
-21 -23 -26 0
6 22 23 0
-6 -22 -23 0
12 22 24 0
-12 -22 -24 0
18 22 25 0
-18 -22 -25 0
22 24 26 0
-22 -24 -26 0
1 22 23 0
-1 -22 -23 0
7 23 0
-7 -23 0
13 23 24 0
-13 -23 -24 0
19 23 25 0
-19 -23 -25 0
23 25 26 0
-23 -25 -26 0
2 22 24 0
-2 -22 -24 0
8 23 24 0
-8 -23 -24 0
14 24 0
-14 -24 0
20 24 25 0
-20 -24 -25 0
24 26 0
-24 -26 0
3 22 25 0
-3 -22 -25 0
9 23 25 0
-9 -23 -25 0
15 24 25 0
-15 -24 -25 0
21 25 0
-21 -25 0
4 22 26 0
-4 -22 -26 0
10 23 26 0
-10 -23 -26 0
16 24 26 0
-16 -24 -26 0
22 25 26 0
-22 -25 -26 0
