certificates/rado_a6_c154_N26.drat
-26 0
24 0
-14 0
12 0
16 0
-2 0
-22 0
-6 0
-25 0
4 0
20 0
18 0
0
